[VALIDATOR STDOUT]
Type-checking pick-package
...action passes type checking.
Type-checking drop-package
...action passes type checking.
Type-checking move
...action passes type checking.
Checking plan: /home/jfan5/Safety-gen/runs/benchmark/optic/delivery_20260215_225923/delivery/optic_results/delivery_size18_packages1_seed18001.plan
Plan to validate:

Plan size: 142
1:
(move t1 c_8_13 c_9_13)
 
2:
(move t1 c_9_13 c_10_13)
 
3:
(move t1 c_10_13 c_11_13)
 
4:
(move t1 c_11_13 c_12_13)
 
5:
(move t1 c_12_13 c_13_13)
 
6:
(move t1 c_13_13 c_14_13)
 
7:
(pick-package t1 p1 c_14_13)
 
8:
(move t1 c_14_13 c_14_12)
 
9:
(move t1 c_14_12 c_14_11)
 
10:
(move t1 c_14_11 c_13_11)
 
11:
(move t1 c_13_11 c_12_11)
 
12:
(move t1 c_12_11 c_11_11)
 
13:
(move t1 c_11_11 c_11_10)
 
14:
(drop-package t1 p1 c_11_10)
 
15:
(move t1 c_11_10 c_10_10)
 
16:
(move t1 c_10_10 c_9_10)
 
17:
(move t1 c_9_10 c_8_10)
 
18:
(pick-package t1 p7 c_8_10)
 
19:
(move t1 c_8_10 c_9_10)
 
20:
(move t1 c_9_10 c_10_10)
 
21:
(move t1 c_10_10 c_11_10)
 
22:
(drop-package t1 p7 c_11_10)
 
23:
(move t1 c_11_10 c_10_10)
 
24:
(move t1 c_10_10 c_9_10)
 
25:
(move t1 c_9_10 c_8_10)
 
26:
(move t1 c_8_10 c_7_10)
 
27:
(pick-package t1 p4 c_7_10)
 
28:
(move t1 c_7_10 c_8_10)
 
29:
(move t1 c_8_10 c_9_10)
 
30:
(move t1 c_9_10 c_10_10)
 
31:
(move t1 c_10_10 c_11_10)
 
32:
(drop-package t1 p4 c_11_10)
 
33:
(move t1 c_11_10 c_10_10)
 
34:
(move t1 c_10_10 c_10_9)
 
35:
(move t1 c_10_9 c_10_8)
 
36:
(move t1 c_10_8 c_10_7)
 
37:
(move t1 c_10_7 c_9_7)
 
38:
(move t1 c_9_7 c_8_7)
 
39:
(move t1 c_8_7 c_7_7)
 
40:
(move t1 c_7_7 c_6_7)
 
41:
(move t1 c_6_7 c_5_7)
 
42:
(pick-package t1 p3 c_5_7)
 
43:
(move t1 c_5_7 c_5_8)
 
44:
(move t1 c_5_8 c_5_9)
 
45:
(move t1 c_5_9 c_5_10)
 
46:
(move t1 c_5_10 c_6_10)
 
47:
(move t1 c_6_10 c_7_10)
 
48:
(move t1 c_7_10 c_8_10)
 
49:
(move t1 c_8_10 c_9_10)
 
50:
(move t1 c_9_10 c_10_10)
 
51:
(move t1 c_10_10 c_11_10)
 
52:
(drop-package t1 p3 c_11_10)
 
53:
(move t1 c_11_10 c_11_11)
 
54:
(move t1 c_11_11 c_11_12)
 
55:
(move t1 c_11_12 c_11_13)
 
56:
(move t1 c_11_13 c_10_13)
 
57:
(move t1 c_10_13 c_9_13)
 
58:
(move t1 c_9_13 c_8_13)
 
59:
(move t1 c_8_13 c_7_13)
 
60:
(move t1 c_7_13 c_6_13)
 
61:
(move t1 c_6_13 c_5_13)
 
62:
(move t1 c_5_13 c_4_13)
 
63:
(pick-package t1 p8 c_4_13)
 
64:
(move t1 c_4_13 c_4_14)
 
65:
(move t1 c_4_14 c_5_14)
 
66:
(move t1 c_5_14 c_6_14)
 
67:
(move t1 c_6_14 c_7_14)
 
68:
(move t1 c_7_14 c_8_14)
 
69:
(move t1 c_8_14 c_9_14)
 
70:
(move t1 c_9_14 c_10_14)
 
71:
(move t1 c_10_14 c_11_14)
 
72:
(move t1 c_11_14 c_11_13)
 
73:
(move t1 c_11_13 c_11_12)
 
74:
(move t1 c_11_12 c_11_11)
 
75:
(move t1 c_11_11 c_12_11)
 
76:
(move t1 c_12_11 c_13_11)
 
77:
(drop-package t1 p8 c_13_11)
 
78:
(move t1 c_13_11 c_14_11)
 
79:
(pick-package t1 p5 c_14_11)
 
80:
(move t1 c_14_11 c_13_11)
 
81:
(move t1 c_13_11 c_12_11)
 
82:
(move t1 c_12_11 c_11_11)
 
83:
(move t1 c_11_11 c_11_10)
 
84:
(drop-package t1 p5 c_11_10)
 
85:
(move t1 c_11_10 c_11_11)
 
86:
(move t1 c_11_11 c_12_11)
 
87:
(move t1 c_12_11 c_13_11)
 
88:
(pick-package t1 p8 c_13_11)
 
89:
(move t1 c_13_11 c_12_11)
 
90:
(move t1 c_12_11 c_11_11)
 
91:
(move t1 c_11_11 c_11_10)
 
92:
(drop-package t1 p8 c_11_10)
 
93:
(move t1 c_11_10 c_11_11)
 
94:
(move t1 c_11_11 c_11_12)
 
95:
(move t1 c_11_12 c_11_13)
 
96:
(move t1 c_11_13 c_11_14)
 
97:
(move t1 c_11_14 c_12_14)
 
98:
(pick-package t1 p2 c_12_14)
 
99:
(move t1 c_12_14 c_11_14)
 
100:
(move t1 c_11_14 c_10_14)
 
101:
(move t1 c_10_14 c_10_13)
 
102:
(move t1 c_10_13 c_10_12)
 
103:
(move t1 c_10_12 c_10_11)
 
104:
(move t1 c_10_11 c_10_10)
 
105:
(move t1 c_10_10 c_11_10)
 
106:
(drop-package t1 p2 c_11_10)
 
107:
(move t1 c_11_10 c_10_10)
 
108:
(move t1 c_10_10 c_10_9)
 
109:
(move t1 c_10_9 c_10_8)
 
110:
(move t1 c_10_8 c_10_7)
 
111:
(move t1 c_10_7 c_10_6)
 
112:
(move t1 c_10_6 c_10_5)
 
113:
(move t1 c_10_5 c_10_4)
 
114:
(move t1 c_10_4 c_10_3)
 
115:
(move t1 c_10_3 c_10_2)
 
116:
(move t1 c_10_2 c_10_1)
 
117:
(move t1 c_10_1 c_10_0)
 
118:
(move t1 c_10_0 c_9_0)
 
119:
(move t1 c_9_0 c_8_0)
 
120:
(move t1 c_8_0 c_7_0)
 
121:
(move t1 c_7_0 c_6_0)
 
122:
(move t1 c_6_0 c_5_0)
 
123:
(move t1 c_5_0 c_4_0)
 
124:
(pick-package t1 p6 c_4_0)
 
125:
(move t1 c_4_0 c_4_1)
 
126:
(move t1 c_4_1 c_4_2)
 
127:
(move t1 c_4_2 c_4_3)
 
128:
(move t1 c_4_3 c_4_4)
 
129:
(move t1 c_4_4 c_4_5)
 
130:
(move t1 c_4_5 c_4_6)
 
131:
(move t1 c_4_6 c_4_7)
 
132:
(move t1 c_4_7 c_4_8)
 
133:
(move t1 c_4_8 c_4_9)
 
134:
(move t1 c_4_9 c_4_10)
 
135:
(move t1 c_4_10 c_5_10)
 
136:
(move t1 c_5_10 c_6_10)
 
137:
(move t1 c_6_10 c_7_10)
 
138:
(move t1 c_7_10 c_8_10)
 
139:
(move t1 c_8_10 c_9_10)
 
140:
(move t1 c_9_10 c_10_10)
 
141:
(move t1 c_10_10 c_11_10)
 
142:
(drop-package t1 p6 c_11_10)
 

Plan Validation details
-----------------------

Checking next happening (time 1)
Deleting (at t1 c_8_13)
Adding (at t1 c_9_13)

Checking next happening (time 2)
Deleting (at t1 c_9_13)
Adding (at t1 c_10_13)

Checking next happening (time 3)
Deleting (at t1 c_10_13)
Adding (at t1 c_11_13)

Checking next happening (time 4)
Deleting (at t1 c_11_13)
Adding (at t1 c_12_13)

Checking next happening (time 5)
Deleting (at t1 c_12_13)
Adding (at t1 c_13_13)

Checking next happening (time 6)
Deleting (at t1 c_13_13)
Adding (at t1 c_14_13)

Checking next happening (time 7)
Deleting (at p1 c_14_13)
Deleting (empty t1)
Adding (carrying t1 p1)

Checking next happening (time 8)
Deleting (at t1 c_14_13)
Adding (at t1 c_14_12)

Checking next happening (time 9)
Deleting (at t1 c_14_12)
Adding (at t1 c_14_11)

Checking next happening (time 10)
Deleting (at t1 c_14_11)
Adding (at t1 c_13_11)

Checking next happening (time 11)
Deleting (at t1 c_13_11)
Adding (at t1 c_12_11)

Checking next happening (time 12)
Deleting (at t1 c_12_11)
Adding (at t1 c_11_11)

Checking next happening (time 13)
Deleting (at t1 c_11_11)
Adding (at t1 c_11_10)

Checking next happening (time 14)
Deleting (carrying t1 p1)
Adding (empty t1)
Adding (at p1 c_11_10)

Checking next happening (time 15)
Deleting (at t1 c_11_10)
Adding (at t1 c_10_10)

Checking next happening (time 16)
Deleting (at t1 c_10_10)
Adding (at t1 c_9_10)

Checking next happening (time 17)
Deleting (at t1 c_9_10)
Adding (at t1 c_8_10)

Checking next happening (time 18)
Deleting (at p7 c_8_10)
Deleting (empty t1)
Adding (carrying t1 p7)

Checking next happening (time 19)
Deleting (at t1 c_8_10)
Adding (at t1 c_9_10)

Checking next happening (time 20)
Deleting (at t1 c_9_10)
Adding (at t1 c_10_10)

Checking next happening (time 21)
Deleting (at t1 c_10_10)
Adding (at t1 c_11_10)

Checking next happening (time 22)
Deleting (carrying t1 p7)
Adding (empty t1)
Adding (at p7 c_11_10)

Checking next happening (time 23)
Deleting (at t1 c_11_10)
Adding (at t1 c_10_10)

Checking next happening (time 24)
Deleting (at t1 c_10_10)
Adding (at t1 c_9_10)

Checking next happening (time 25)
Deleting (at t1 c_9_10)
Adding (at t1 c_8_10)

Checking next happening (time 26)
Deleting (at t1 c_8_10)
Adding (at t1 c_7_10)

Checking next happening (time 27)
Deleting (at p4 c_7_10)
Deleting (empty t1)
Adding (carrying t1 p4)

Checking next happening (time 28)
Deleting (at t1 c_7_10)
Adding (at t1 c_8_10)

Checking next happening (time 29)
Deleting (at t1 c_8_10)
Adding (at t1 c_9_10)

Checking next happening (time 30)
Deleting (at t1 c_9_10)
Adding (at t1 c_10_10)

Checking next happening (time 31)
Deleting (at t1 c_10_10)
Adding (at t1 c_11_10)

Checking next happening (time 32)
Deleting (carrying t1 p4)
Adding (empty t1)
Adding (at p4 c_11_10)

Checking next happening (time 33)
Deleting (at t1 c_11_10)
Adding (at t1 c_10_10)

Checking next happening (time 34)
Deleting (at t1 c_10_10)
Adding (at t1 c_10_9)

Checking next happening (time 35)
Deleting (at t1 c_10_9)
Adding (at t1 c_10_8)

Checking next happening (time 36)
Deleting (at t1 c_10_8)
Adding (at t1 c_10_7)

Checking next happening (time 37)
Deleting (at t1 c_10_7)
Adding (at t1 c_9_7)

Checking next happening (time 38)
Deleting (at t1 c_9_7)
Adding (at t1 c_8_7)

Checking next happening (time 39)
Deleting (at t1 c_8_7)
Adding (at t1 c_7_7)

Checking next happening (time 40)
Deleting (at t1 c_7_7)
Adding (at t1 c_6_7)

Checking next happening (time 41)
Deleting (at t1 c_6_7)
Adding (at t1 c_5_7)

Checking next happening (time 42)
Deleting (at p3 c_5_7)
Deleting (empty t1)
Adding (carrying t1 p3)

Checking next happening (time 43)
Deleting (at t1 c_5_7)
Adding (at t1 c_5_8)

Checking next happening (time 44)
Deleting (at t1 c_5_8)
Adding (at t1 c_5_9)

Checking next happening (time 45)
Deleting (at t1 c_5_9)
Adding (at t1 c_5_10)

Checking next happening (time 46)
Deleting (at t1 c_5_10)
Adding (at t1 c_6_10)

Checking next happening (time 47)
Deleting (at t1 c_6_10)
Adding (at t1 c_7_10)

Checking next happening (time 48)
Deleting (at t1 c_7_10)
Adding (at t1 c_8_10)

Checking next happening (time 49)
Deleting (at t1 c_8_10)
Adding (at t1 c_9_10)

Checking next happening (time 50)
Deleting (at t1 c_9_10)
Adding (at t1 c_10_10)

Checking next happening (time 51)
Deleting (at t1 c_10_10)
Adding (at t1 c_11_10)

Checking next happening (time 52)
Deleting (carrying t1 p3)
Adding (empty t1)
Adding (at p3 c_11_10)

Checking next happening (time 53)
Deleting (at t1 c_11_10)
Adding (at t1 c_11_11)

Checking next happening (time 54)
Deleting (at t1 c_11_11)
Adding (at t1 c_11_12)

Checking next happening (time 55)
Deleting (at t1 c_11_12)
Adding (at t1 c_11_13)

Checking next happening (time 56)
Deleting (at t1 c_11_13)
Adding (at t1 c_10_13)

Checking next happening (time 57)
Deleting (at t1 c_10_13)
Adding (at t1 c_9_13)

Checking next happening (time 58)
Deleting (at t1 c_9_13)
Adding (at t1 c_8_13)

Checking next happening (time 59)
Deleting (at t1 c_8_13)
Adding (at t1 c_7_13)

Checking next happening (time 60)
Deleting (at t1 c_7_13)
Adding (at t1 c_6_13)

Checking next happening (time 61)
Deleting (at t1 c_6_13)
Adding (at t1 c_5_13)

Checking next happening (time 62)
Deleting (at t1 c_5_13)
Adding (at t1 c_4_13)

Checking next happening (time 63)
Deleting (at p8 c_4_13)
Deleting (empty t1)
Adding (carrying t1 p8)

Checking next happening (time 64)
Deleting (at t1 c_4_13)
Adding (at t1 c_4_14)

Checking next happening (time 65)
Deleting (at t1 c_4_14)
Adding (at t1 c_5_14)

Checking next happening (time 66)
Deleting (at t1 c_5_14)
Adding (at t1 c_6_14)

Checking next happening (time 67)
Deleting (at t1 c_6_14)
Adding (at t1 c_7_14)

Checking next happening (time 68)
Deleting (at t1 c_7_14)
Adding (at t1 c_8_14)

Checking next happening (time 69)
Deleting (at t1 c_8_14)
Adding (at t1 c_9_14)

Checking next happening (time 70)
Deleting (at t1 c_9_14)
Adding (at t1 c_10_14)

Checking next happening (time 71)
Deleting (at t1 c_10_14)
Adding (at t1 c_11_14)

Checking next happening (time 72)
Deleting (at t1 c_11_14)
Adding (at t1 c_11_13)

Checking next happening (time 73)
Deleting (at t1 c_11_13)
Adding (at t1 c_11_12)

Checking next happening (time 74)
Deleting (at t1 c_11_12)
Adding (at t1 c_11_11)

Checking next happening (time 75)
Deleting (at t1 c_11_11)
Adding (at t1 c_12_11)

Checking next happening (time 76)
Deleting (at t1 c_12_11)
Adding (at t1 c_13_11)

Checking next happening (time 77)
Deleting (carrying t1 p8)
Adding (empty t1)
Adding (at p8 c_13_11)

Checking next happening (time 78)
Deleting (at t1 c_13_11)
Adding (at t1 c_14_11)

Checking next happening (time 79)
Deleting (at p5 c_14_11)
Deleting (empty t1)
Adding (carrying t1 p5)

Checking next happening (time 80)
Deleting (at t1 c_14_11)
Adding (at t1 c_13_11)

Checking next happening (time 81)
Deleting (at t1 c_13_11)
Adding (at t1 c_12_11)

Checking next happening (time 82)
Deleting (at t1 c_12_11)
Adding (at t1 c_11_11)

Checking next happening (time 83)
Deleting (at t1 c_11_11)
Adding (at t1 c_11_10)

Checking next happening (time 84)
Deleting (carrying t1 p5)
Adding (empty t1)
Adding (at p5 c_11_10)

Checking next happening (time 85)
Deleting (at t1 c_11_10)
Adding (at t1 c_11_11)

Checking next happening (time 86)
Deleting (at t1 c_11_11)
Adding (at t1 c_12_11)

Checking next happening (time 87)
Deleting (at t1 c_12_11)
Adding (at t1 c_13_11)

Checking next happening (time 88)
Deleting (at p8 c_13_11)
Deleting (empty t1)
Adding (carrying t1 p8)

Checking next happening (time 89)
Deleting (at t1 c_13_11)
Adding (at t1 c_12_11)

Checking next happening (time 90)
Deleting (at t1 c_12_11)
Adding (at t1 c_11_11)

Checking next happening (time 91)
Deleting (at t1 c_11_11)
Adding (at t1 c_11_10)

Checking next happening (time 92)
Deleting (carrying t1 p8)
Adding (empty t1)
Adding (at p8 c_11_10)

Checking next happening (time 93)
Deleting (at t1 c_11_10)
Adding (at t1 c_11_11)

Checking next happening (time 94)
Deleting (at t1 c_11_11)
Adding (at t1 c_11_12)

Checking next happening (time 95)
Deleting (at t1 c_11_12)
Adding (at t1 c_11_13)

Checking next happening (time 96)
Deleting (at t1 c_11_13)
Adding (at t1 c_11_14)

Checking next happening (time 97)
Deleting (at t1 c_11_14)
Adding (at t1 c_12_14)

Checking next happening (time 98)
Deleting (at p2 c_12_14)
Deleting (empty t1)
Adding (carrying t1 p2)

Checking next happening (time 99)
Deleting (at t1 c_12_14)
Adding (at t1 c_11_14)

Checking next happening (time 100)
Deleting (at t1 c_11_14)
Adding (at t1 c_10_14)

Checking next happening (time 101)
Deleting (at t1 c_10_14)
Adding (at t1 c_10_13)

Checking next happening (time 102)
Deleting (at t1 c_10_13)
Adding (at t1 c_10_12)

Checking next happening (time 103)
Deleting (at t1 c_10_12)
Adding (at t1 c_10_11)

Checking next happening (time 104)
Deleting (at t1 c_10_11)
Adding (at t1 c_10_10)

Checking next happening (time 105)
Deleting (at t1 c_10_10)
Adding (at t1 c_11_10)

Checking next happening (time 106)
Deleting (carrying t1 p2)
Adding (empty t1)
Adding (at p2 c_11_10)

Checking next happening (time 107)
Deleting (at t1 c_11_10)
Adding (at t1 c_10_10)

Checking next happening (time 108)
Deleting (at t1 c_10_10)
Adding (at t1 c_10_9)

Checking next happening (time 109)
Deleting (at t1 c_10_9)
Adding (at t1 c_10_8)

Checking next happening (time 110)
Deleting (at t1 c_10_8)
Adding (at t1 c_10_7)

Checking next happening (time 111)
Deleting (at t1 c_10_7)
Adding (at t1 c_10_6)

Checking next happening (time 112)
Deleting (at t1 c_10_6)
Adding (at t1 c_10_5)

Checking next happening (time 113)
Deleting (at t1 c_10_5)
Adding (at t1 c_10_4)

Checking next happening (time 114)
Deleting (at t1 c_10_4)
Adding (at t1 c_10_3)

Checking next happening (time 115)
Deleting (at t1 c_10_3)
Adding (at t1 c_10_2)

Checking next happening (time 116)
Deleting (at t1 c_10_2)
Adding (at t1 c_10_1)

Checking next happening (time 117)
Deleting (at t1 c_10_1)
Adding (at t1 c_10_0)

Checking next happening (time 118)
Deleting (at t1 c_10_0)
Adding (at t1 c_9_0)

Checking next happening (time 119)
Deleting (at t1 c_9_0)
Adding (at t1 c_8_0)

Checking next happening (time 120)
Deleting (at t1 c_8_0)
Adding (at t1 c_7_0)

Checking next happening (time 121)
Deleting (at t1 c_7_0)
Adding (at t1 c_6_0)

Checking next happening (time 122)
Deleting (at t1 c_6_0)
Adding (at t1 c_5_0)

Checking next happening (time 123)
Deleting (at t1 c_5_0)
Adding (at t1 c_4_0)

Checking next happening (time 124)
Deleting (at p6 c_4_0)
Deleting (empty t1)
Adding (carrying t1 p6)

Checking next happening (time 125)
Deleting (at t1 c_4_0)
Adding (at t1 c_4_1)

Checking next happening (time 126)
Deleting (at t1 c_4_1)
Adding (at t1 c_4_2)

Checking next happening (time 127)
Deleting (at t1 c_4_2)
Adding (at t1 c_4_3)

Checking next happening (time 128)
Deleting (at t1 c_4_3)
Adding (at t1 c_4_4)

Checking next happening (time 129)
Deleting (at t1 c_4_4)
Adding (at t1 c_4_5)

Checking next happening (time 130)
Deleting (at t1 c_4_5)
Adding (at t1 c_4_6)

Checking next happening (time 131)
Deleting (at t1 c_4_6)
Adding (at t1 c_4_7)

Checking next happening (time 132)
Deleting (at t1 c_4_7)
Adding (at t1 c_4_8)

Checking next happening (time 133)
Deleting (at t1 c_4_8)
Adding (at t1 c_4_9)

Checking next happening (time 134)
Deleting (at t1 c_4_9)
Adding (at t1 c_4_10)

Checking next happening (time 135)
Deleting (at t1 c_4_10)
Adding (at t1 c_5_10)

Checking next happening (time 136)
Deleting (at t1 c_5_10)
Adding (at t1 c_6_10)

Checking next happening (time 137)
Deleting (at t1 c_6_10)
Adding (at t1 c_7_10)

Checking next happening (time 138)
Deleting (at t1 c_7_10)
Adding (at t1 c_8_10)

Checking next happening (time 139)
Deleting (at t1 c_8_10)
Adding (at t1 c_9_10)

Checking next happening (time 140)
Deleting (at t1 c_9_10)
Adding (at t1 c_10_10)

Checking next happening (time 141)
Deleting (at t1 c_10_10)
Adding (at t1 c_11_10)

Checking next happening (time 142)
Deleting (carrying t1 p6)
Adding (empty t1)
Adding (at p6 c_11_10)
Plan executed successfully - checking goal
Plan valid
Final value: 142 

Successful plans:
Value: 142
 /home/jfan5/Safety-gen/runs/benchmark/optic/delivery_20260215_225923/delivery/optic_results/delivery_size18_packages1_seed18001.plan 142
